p cnf 200 1110
-101 -71 0
-101 -68 0
-101 -47 0
-101 16 0
-101 -4 0
-101 -7 0
-101 70 0
-101 99 0
-101 78 0
-101 -62 0
101 71 68 47 -16 4 7 -70 -99 -78 62 0
-102 100 0
-102 77 0
-102 -44 0
-102 90 0
-102 -16 0
-102 54 0
-102 50 0
-102 85 0
-102 92 0
-102 -71 0
102 -100 -77 44 -90 16 -54 -50 -85 -92 71 0
-103 -2 0
-103 69 0
-103 -27 0
-103 25 0
-103 53 0
-103 -28 0
-103 83 0
-103 -94 0
-103 37 0
-103 55 0
103 2 -69 27 -25 -53 28 -83 94 -37 -55 0
-104 54 0
-104 44 0
-104 93 0
-104 -56 0
-104 -11 0
-104 -67 0
-104 -9 0
-104 -58 0
-104 68 0
-104 13 0
104 -54 -44 -93 56 11 67 9 58 -68 -13 0
-105 89 0
-105 41 0
-105 -10 0
-105 -1 0
-105 19 0
-105 76 0
-105 62 0
-105 -50 0
-105 -72 0
-105 -53 0
105 -89 -41 10 1 -19 -76 -62 50 72 53 0
-106 -48 0
-106 70 0
-106 41 0
-106 -57 0
-106 67 0
-106 -14 0
-106 95 0
-106 -30 0
-106 78 0
-106 26 0
106 48 -70 -41 57 -67 14 -95 30 -78 -26 0
-107 -36 0
-107 50 0
-107 66 0
-107 -3 0
-107 -13 0
-107 -59 0
-107 -18 0
-107 -98 0
-107 -45 0
-107 -51 0
107 36 -50 -66 3 13 59 18 98 45 51 0
-108 -69 0
-108 64 0
-108 -2 0
-108 39 0
-108 25 0
-108 37 0
-108 28 0
-108 49 0
-108 7 0
-108 -91 0
108 69 -64 2 -39 -25 -37 -28 -49 -7 91 0
-109 -47 0
-109 95 0
-109 -7 0
-109 -58 0
-109 93 0
-109 72 0
-109 11 0
-109 -59 0
-109 -66 0
-109 -87 0
109 47 -95 7 58 -93 -72 -11 59 66 87 0
-110 80 0
-110 75 0
-110 -2 0
-110 -61 0
-110 -29 0
-110 -6 0
-110 63 0
-110 -73 0
-110 89 0
-110 10 0
110 -80 -75 2 61 29 6 -63 73 -89 -10 0
101 102 103 104 105 106 107 108 109 110 0
-111 -30 0
-111 -20 0
-111 -63 0
-111 -54 0
-111 -18 0
-111 -86 0
-111 -2 0
-111 -98 0
-111 -52 0
-111 -23 0
111 30 20 63 54 18 86 2 98 52 23 0
-112 -82 0
-112 94 0
-112 18 0
-112 73 0
-112 64 0
-112 72 0
-112 30 0
-112 14 0
-112 -32 0
-112 -52 0
112 82 -94 -18 -73 -64 -72 -30 -14 32 52 0
-113 68 0
-113 48 0
-113 -19 0
-113 -78 0
-113 -58 0
-113 76 0
-113 -33 0
-113 -81 0
-113 37 0
-113 29 0
113 -68 -48 19 78 58 -76 33 81 -37 -29 0
-114 -61 0
-114 -79 0
-114 -27 0
-114 8 0
-114 -97 0
-114 20 0
-114 -13 0
-114 -67 0
-114 81 0
-114 18 0
114 61 79 27 -8 97 -20 13 67 -81 -18 0
-115 31 0
-115 -67 0
-115 -13 0
-115 -95 0
-115 65 0
-115 84 0
-115 -81 0
-115 -68 0
-115 -22 0
-115 -53 0
115 -31 67 13 95 -65 -84 81 68 22 53 0
-116 -38 0
-116 -18 0
-116 32 0
-116 2 0
-116 40 0
-116 20 0
-116 -16 0
-116 92 0
-116 -79 0
-116 42 0
116 38 18 -32 -2 -40 -20 16 -92 79 -42 0
-117 53 0
-117 -17 0
-117 -56 0
-117 25 0
-117 -2 0
-117 -86 0
-117 -31 0
-117 6 0
-117 -5 0
-117 58 0
117 -53 17 56 -25 2 86 31 -6 5 -58 0
-118 83 0
-118 82 0
-118 40 0
-118 -50 0
-118 67 0
-118 36 0
-118 69 0
-118 -61 0
-118 -45 0
-118 72 0
118 -83 -82 -40 50 -67 -36 -69 61 45 -72 0
-119 23 0
-119 -39 0
-119 -59 0
-119 4 0
-119 -93 0
-119 99 0
-119 16 0
-119 -75 0
-119 -24 0
-119 38 0
119 -23 39 59 -4 93 -99 -16 75 24 -38 0
-120 -57 0
-120 19 0
-120 -26 0
-120 35 0
-120 -98 0
-120 44 0
-120 -38 0
-120 -55 0
-120 52 0
-120 80 0
120 57 -19 26 -35 98 -44 38 55 -52 -80 0
111 112 113 114 115 116 117 118 119 120 0
-121 73 0
-121 -49 0
-121 34 0
-121 59 0
-121 40 0
-121 -66 0
-121 -47 0
-121 87 0
-121 -32 0
-121 -1 0
121 -73 49 -34 -59 -40 66 47 -87 32 1 0
-122 -88 0
-122 -77 0
-122 100 0
-122 64 0
-122 32 0
-122 -83 0
-122 -1 0
-122 90 0
-122 -60 0
-122 -53 0
122 88 77 -100 -64 -32 83 1 -90 60 53 0
-123 98 0
-123 -11 0
-123 -75 0
-123 20 0
-123 -72 0
-123 -10 0
-123 36 0
-123 -100 0
-123 22 0
-123 -80 0
123 -98 11 75 -20 72 10 -36 100 -22 80 0
-124 -13 0
-124 75 0
-124 -89 0
-124 84 0
-124 55 0
-124 62 0
-124 79 0
-124 -2 0
-124 50 0
-124 -40 0
124 13 -75 89 -84 -55 -62 -79 2 -50 40 0
-125 -92 0
-125 46 0
-125 -47 0
-125 24 0
-125 -35 0
-125 99 0
-125 -13 0
-125 -22 0
-125 -19 0
-125 -18 0
125 92 -46 47 -24 35 -99 13 22 19 18 0
-126 -51 0
-126 -22 0
-126 -8 0
-126 91 0
-126 -6 0
-126 -1 0
-126 -32 0
-126 -40 0
-126 33 0
-126 9 0
126 51 22 8 -91 6 1 32 40 -33 -9 0
-127 52 0
-127 98 0
-127 38 0
-127 18 0
-127 -43 0
-127 21 0
-127 100 0
-127 5 0
-127 20 0
-127 -17 0
127 -52 -98 -38 -18 43 -21 -100 -5 -20 17 0
-128 -8 0
-128 67 0
-128 13 0
-128 -12 0
-128 46 0
-128 43 0
-128 28 0
-128 49 0
-128 59 0
-128 45 0
128 8 -67 -13 12 -46 -43 -28 -49 -59 -45 0
-129 97 0
-129 13 0
-129 -98 0
-129 -63 0
-129 -27 0
-129 -37 0
-129 -49 0
-129 -8 0
-129 6 0
-129 -44 0
129 -97 -13 98 63 27 37 49 8 -6 44 0
-130 -58 0
-130 35 0
-130 -24 0
-130 -95 0
-130 92 0
-130 -18 0
-130 50 0
-130 1 0
-130 -33 0
-130 81 0
130 58 -35 24 95 -92 18 -50 -1 33 -81 0
121 122 123 124 125 126 127 128 129 130 0
-131 79 0
-131 37 0
-131 -96 0
-131 -22 0
-131 99 0
-131 -56 0
-131 72 0
-131 -62 0
-131 36 0
-131 -91 0
131 -79 -37 96 22 -99 56 -72 62 -36 91 0
-132 35 0
-132 85 0
-132 67 0
-132 82 0
-132 -75 0
-132 36 0
-132 -23 0
-132 -60 0
-132 -77 0
-132 -39 0
132 -35 -85 -67 -82 75 -36 23 60 77 39 0
-133 -44 0
-133 -69 0
-133 29 0
-133 87 0
-133 48 0
-133 60 0
-133 1 0
-133 -97 0
-133 -76 0
-133 19 0
133 44 69 -29 -87 -48 -60 -1 97 76 -19 0
-134 74 0
-134 22 0
-134 10 0
-134 -96 0
-134 32 0
-134 50 0
-134 81 0
-134 -47 0
-134 -88 0
-134 3 0
134 -74 -22 -10 96 -32 -50 -81 47 88 -3 0
-135 -98 0
-135 12 0
-135 57 0
-135 -81 0
-135 -35 0
-135 96 0
-135 -53 0
-135 26 0
-135 -39 0
-135 60 0
135 98 -12 -57 81 35 -96 53 -26 39 -60 0
-136 12 0
-136 -37 0
-136 -62 0
-136 -3 0
-136 -33 0
-136 -44 0
-136 -19 0
-136 -79 0
-136 -17 0
-136 11 0
136 -12 37 62 3 33 44 19 79 17 -11 0
-137 86 0
-137 84 0
-137 93 0
-137 -28 0
-137 -66 0
-137 10 0
-137 -64 0
-137 95 0
-137 46 0
-137 13 0
137 -86 -84 -93 28 66 -10 64 -95 -46 -13 0
-138 20 0
-138 9 0
-138 -13 0
-138 -24 0
-138 -35 0
-138 -86 0
-138 -91 0
-138 -28 0
-138 -8 0
-138 -25 0
138 -20 -9 13 24 35 86 91 28 8 25 0
-139 -31 0
-139 -19 0
-139 -17 0
-139 48 0
-139 -85 0
-139 20 0
-139 -84 0
-139 46 0
-139 -71 0
-139 -79 0
139 31 19 17 -48 85 -20 84 -46 71 79 0
-140 17 0
-140 -31 0
-140 50 0
-140 -23 0
-140 59 0
-140 43 0
-140 -3 0
-140 -18 0
-140 -64 0
-140 -44 0
140 -17 31 -50 23 -59 -43 3 18 64 44 0
131 132 133 134 135 136 137 138 139 140 0
-141 59 0
-141 -43 0
-141 38 0
-141 50 0
-141 33 0
-141 68 0
-141 -45 0
-141 57 0
-141 -19 0
-141 100 0
141 -59 43 -38 -50 -33 -68 45 -57 19 -100 0
-142 100 0
-142 -85 0
-142 -88 0
-142 -47 0
-142 -89 0
-142 44 0
-142 -19 0
-142 -24 0
-142 18 0
-142 -51 0
142 -100 85 88 47 89 -44 19 24 -18 51 0
-143 -44 0
-143 -40 0
-143 -2 0
-143 51 0
-143 9 0
-143 -53 0
-143 -98 0
-143 59 0
-143 -68 0
-143 77 0
143 44 40 2 -51 -9 53 98 -59 68 -77 0
-144 -82 0
-144 90 0
-144 53 0
-144 26 0
-144 63 0
-144 7 0
-144 14 0
-144 65 0
-144 12 0
-144 73 0
144 82 -90 -53 -26 -63 -7 -14 -65 -12 -73 0
-145 -20 0
-145 33 0
-145 23 0
-145 14 0
-145 61 0
-145 15 0
-145 63 0
-145 -50 0
-145 2 0
-145 5 0
145 20 -33 -23 -14 -61 -15 -63 50 -2 -5 0
-146 61 0
-146 3 0
-146 47 0
-146 72 0
-146 64 0
-146 7 0
-146 -80 0
-146 -100 0
-146 -35 0
-146 75 0
146 -61 -3 -47 -72 -64 -7 80 100 35 -75 0
-147 68 0
-147 -80 0
-147 11 0
-147 92 0
-147 -29 0
-147 -96 0
-147 -44 0
-147 61 0
-147 -72 0
-147 -97 0
147 -68 80 -11 -92 29 96 44 -61 72 97 0
-148 70 0
-148 34 0
-148 60 0
-148 -57 0
-148 -86 0
-148 93 0
-148 44 0
-148 -17 0
-148 -48 0
-148 64 0
148 -70 -34 -60 57 86 -93 -44 17 48 -64 0
-149 -14 0
-149 64 0
-149 -16 0
-149 39 0
-149 12 0
-149 -55 0
-149 -51 0
-149 -21 0
-149 96 0
-149 -25 0
149 14 -64 16 -39 -12 55 51 21 -96 25 0
-150 -88 0
-150 76 0
-150 -69 0
-150 -34 0
-150 77 0
-150 -42 0
-150 -2 0
-150 -89 0
-150 60 0
-150 -64 0
150 88 -76 69 34 -77 42 2 89 -60 64 0
141 142 143 144 145 146 147 148 149 150 0
-151 22 0
-151 -60 0
-151 -17 0
-151 75 0
-151 52 0
-151 24 0
-151 -89 0
-151 -41 0
-151 72 0
-151 -58 0
151 -22 60 17 -75 -52 -24 89 41 -72 58 0
-152 -18 0
-152 73 0
-152 50 0
-152 -75 0
-152 8 0
-152 52 0
-152 -4 0
-152 59 0
-152 92 0
-152 6 0
152 18 -73 -50 75 -8 -52 4 -59 -92 -6 0
-153 34 0
-153 2 0
-153 93 0
-153 26 0
-153 19 0
-153 -22 0
-153 81 0
-153 3 0
-153 -47 0
-153 -29 0
153 -34 -2 -93 -26 -19 22 -81 -3 47 29 0
-154 -58 0
-154 66 0
-154 52 0
-154 -2 0
-154 -4 0
-154 81 0
-154 -51 0
-154 89 0
-154 3 0
-154 35 0
154 58 -66 -52 2 4 -81 51 -89 -3 -35 0
-155 -10 0
-155 97 0
-155 -74 0
-155 14 0
-155 93 0
-155 19 0
-155 92 0
-155 -27 0
-155 -11 0
-155 -18 0
155 10 -97 74 -14 -93 -19 -92 27 11 18 0
-156 -100 0
-156 74 0
-156 -36 0
-156 -79 0
-156 -14 0
-156 92 0
-156 73 0
-156 -63 0
-156 -75 0
-156 42 0
156 100 -74 36 79 14 -92 -73 63 75 -42 0
-157 85 0
-157 25 0
-157 -99 0
-157 86 0
-157 56 0
-157 -7 0
-157 45 0
-157 22 0
-157 -87 0
-157 65 0
157 -85 -25 99 -86 -56 7 -45 -22 87 -65 0
-158 72 0
-158 30 0
-158 73 0
-158 28 0
-158 54 0
-158 -60 0
-158 86 0
-158 58 0
-158 89 0
-158 -3 0
158 -72 -30 -73 -28 -54 60 -86 -58 -89 3 0
-159 48 0
-159 -88 0
-159 100 0
-159 98 0
-159 99 0
-159 -78 0
-159 -84 0
-159 -63 0
-159 82 0
-159 55 0
159 -48 88 -100 -98 -99 78 84 63 -82 -55 0
-160 -80 0
-160 -98 0
-160 -16 0
-160 23 0
-160 -83 0
-160 42 0
-160 -2 0
-160 90 0
-160 27 0
-160 -56 0
160 80 98 16 -23 83 -42 2 -90 -27 56 0
151 152 153 154 155 156 157 158 159 160 0
-161 -36 0
-161 -91 0
-161 -6 0
-161 34 0
-161 -89 0
-161 15 0
-161 65 0
-161 99 0
-161 39 0
-161 -45 0
161 36 91 6 -34 89 -15 -65 -99 -39 45 0
-162 -9 0
-162 -70 0
-162 92 0
-162 -41 0
-162 20 0
-162 16 0
-162 -88 0
-162 -90 0
-162 26 0
-162 74 0
162 9 70 -92 41 -20 -16 88 90 -26 -74 0
-163 -26 0
-163 48 0
-163 51 0
-163 11 0
-163 34 0
-163 32 0
-163 12 0
-163 -27 0
-163 -2 0
-163 -29 0
163 26 -48 -51 -11 -34 -32 -12 27 2 29 0
-164 -4 0
-164 25 0
-164 -27 0
-164 11 0
-164 -28 0
-164 -85 0
-164 23 0
-164 100 0
-164 76 0
-164 89 0
164 4 -25 27 -11 28 85 -23 -100 -76 -89 0
-165 -70 0
-165 -39 0
-165 -58 0
-165 63 0
-165 -79 0
-165 90 0
-165 -68 0
-165 -85 0
-165 13 0
-165 69 0
165 70 39 58 -63 79 -90 68 85 -13 -69 0
-166 28 0
-166 41 0
-166 -72 0
-166 51 0
-166 81 0
-166 -29 0
-166 44 0
-166 -30 0
-166 -24 0
-166 8 0
166 -28 -41 72 -51 -81 29 -44 30 24 -8 0
-167 62 0
-167 71 0
-167 17 0
-167 16 0
-167 -75 0
-167 -45 0
-167 -57 0
-167 18 0
-167 -46 0
-167 -24 0
167 -62 -71 -17 -16 75 45 57 -18 46 24 0
-168 100 0
-168 29 0
-168 7 0
-168 -72 0
-168 70 0
-168 8 0
-168 -35 0
-168 -97 0
-168 51 0
-168 18 0
168 -100 -29 -7 72 -70 -8 35 97 -51 -18 0
-169 -56 0
-169 58 0
-169 -17 0
-169 -26 0
-169 -20 0
-169 -92 0
-169 6 0
-169 71 0
-169 7 0
-169 94 0
169 56 -58 17 26 20 92 -6 -71 -7 -94 0
-170 36 0
-170 22 0
-170 95 0
-170 48 0
-170 18 0
-170 8 0
-170 -65 0
-170 81 0
-170 82 0
-170 -90 0
170 -36 -22 -95 -48 -18 -8 65 -81 -82 90 0
161 162 163 164 165 166 167 168 169 170 0
-171 31 0
-171 -36 0
-171 19 0
-171 32 0
-171 -55 0
-171 -34 0
-171 97 0
-171 58 0
-171 -39 0
-171 71 0
171 -31 36 -19 -32 55 34 -97 -58 39 -71 0
-172 -99 0
-172 32 0
-172 85 0
-172 88 0
-172 -50 0
-172 -92 0
-172 -11 0
-172 -71 0
-172 10 0
-172 -98 0
172 99 -32 -85 -88 50 92 11 71 -10 98 0
-173 -1 0
-173 -39 0
-173 79 0
-173 -97 0
-173 41 0
-173 21 0
-173 -90 0
-173 10 0
-173 44 0
-173 50 0
173 1 39 -79 97 -41 -21 90 -10 -44 -50 0
-174 -15 0
-174 98 0
-174 -60 0
-174 -49 0
-174 -79 0
-174 66 0
-174 -61 0
-174 95 0
-174 81 0
-174 54 0
174 15 -98 60 49 79 -66 61 -95 -81 -54 0
-175 30 0
-175 -59 0
-175 -70 0
-175 76 0
-175 -22 0
-175 62 0
-175 23 0
-175 11 0
-175 -1 0
-175 38 0
175 -30 59 70 -76 22 -62 -23 -11 1 -38 0
-176 -27 0
-176 -23 0
-176 70 0
-176 60 0
-176 87 0
-176 65 0
-176 100 0
-176 -99 0
-176 -35 0
-176 -73 0
176 27 23 -70 -60 -87 -65 -100 99 35 73 0
-177 20 0
-177 -7 0
-177 80 0
-177 25 0
-177 -46 0
-177 -61 0
-177 78 0
-177 17 0
-177 -33 0
-177 43 0
177 -20 7 -80 -25 46 61 -78 -17 33 -43 0
-178 97 0
-178 87 0
-178 -50 0
-178 -66 0
-178 -61 0
-178 -53 0
-178 -49 0
-178 -99 0
-178 -23 0
-178 -11 0
178 -97 -87 50 66 61 53 49 99 23 11 0
-179 76 0
-179 46 0
-179 -24 0
-179 28 0
-179 -85 0
-179 67 0
-179 -23 0
-179 66 0
-179 69 0
-179 27 0
179 -76 -46 24 -28 85 -67 23 -66 -69 -27 0
-180 40 0
-180 -41 0
-180 -45 0
-180 63 0
-180 5 0
-180 18 0
-180 79 0
-180 -35 0
-180 -96 0
-180 -29 0
180 -40 41 45 -63 -5 -18 -79 35 96 29 0
171 172 173 174 175 176 177 178 179 180 0
-181 -12 0
-181 -65 0
-181 89 0
-181 -47 0
-181 -55 0
-181 25 0
-181 88 0
-181 -53 0
-181 14 0
-181 -30 0
181 12 65 -89 47 55 -25 -88 53 -14 30 0
-182 58 0
-182 -95 0
-182 34 0
-182 -15 0
-182 -31 0
-182 63 0
-182 -75 0
-182 46 0
-182 86 0
-182 -26 0
182 -58 95 -34 15 31 -63 75 -46 -86 26 0
-183 -60 0
-183 -81 0
-183 -89 0
-183 -73 0
-183 -45 0
-183 -88 0
-183 12 0
-183 -39 0
-183 61 0
-183 23 0
183 60 81 89 73 45 88 -12 39 -61 -23 0
-184 -50 0
-184 -4 0
-184 28 0
-184 -51 0
-184 -44 0
-184 74 0
-184 -91 0
-184 98 0
-184 -83 0
-184 60 0
184 50 4 -28 51 44 -74 91 -98 83 -60 0
-185 -60 0
-185 72 0
-185 39 0
-185 -8 0
-185 9 0
-185 -58 0
-185 -3 0
-185 75 0
-185 70 0
-185 -91 0
185 60 -72 -39 8 -9 58 3 -75 -70 91 0
-186 66 0
-186 97 0
-186 -69 0
-186 91 0
-186 49 0
-186 50 0
-186 22 0
-186 -46 0
-186 20 0
-186 -29 0
186 -66 -97 69 -91 -49 -50 -22 46 -20 29 0
-187 -45 0
-187 -71 0
-187 76 0
-187 78 0
-187 -81 0
-187 59 0
-187 11 0
-187 -85 0
-187 33 0
-187 -25 0
187 45 71 -76 -78 81 -59 -11 85 -33 25 0
-188 29 0
-188 52 0
-188 -8 0
-188 -50 0
-188 -43 0
-188 59 0
-188 -46 0
-188 -31 0
-188 -39 0
-188 54 0
188 -29 -52 8 50 43 -59 46 31 39 -54 0
-189 -66 0
-189 7 0
-189 -81 0
-189 -52 0
-189 3 0
-189 -32 0
-189 82 0
-189 -96 0
-189 -93 0
-189 23 0
189 66 -7 81 52 -3 32 -82 96 93 -23 0
-190 -95 0
-190 -92 0
-190 -23 0
-190 -10 0
-190 -2 0
-190 -96 0
-190 80 0
-190 51 0
-190 70 0
-190 61 0
190 95 92 23 10 2 96 -80 -51 -70 -61 0
181 182 183 184 185 186 187 188 189 190 0
-191 84 0
-191 -85 0
-191 96 0
-191 -16 0
-191 87 0
-191 48 0
-191 -59 0
-191 -38 0
-191 -27 0
-191 -83 0
191 -84 85 -96 16 -87 -48 59 38 27 83 0
-192 84 0
-192 10 0
-192 2 0
-192 -24 0
-192 -93 0
-192 56 0
-192 97 0
-192 81 0
-192 55 0
-192 49 0
192 -84 -10 -2 24 93 -56 -97 -81 -55 -49 0
-193 65 0
-193 -55 0
-193 -46 0
-193 -13 0
-193 24 0
-193 69 0
-193 90 0
-193 2 0
-193 15 0
-193 -4 0
193 -65 55 46 13 -24 -69 -90 -2 -15 4 0
-194 -85 0
-194 -68 0
-194 43 0
-194 73 0
-194 -18 0
-194 -9 0
-194 -30 0
-194 -67 0
-194 61 0
-194 -8 0
194 85 68 -43 -73 18 9 30 67 -61 8 0
-195 28 0
-195 -76 0
-195 -3 0
-195 27 0
-195 88 0
-195 -41 0
-195 80 0
-195 -6 0
-195 38 0
-195 -77 0
195 -28 76 3 -27 -88 41 -80 6 -38 77 0
-196 4 0
-196 27 0
-196 -8 0
-196 -20 0
-196 -56 0
-196 97 0
-196 -23 0
-196 57 0
-196 89 0
-196 -31 0
196 -4 -27 8 20 56 -97 23 -57 -89 31 0
-197 -41 0
-197 46 0
-197 -82 0
-197 -32 0
-197 23 0
-197 56 0
-197 -43 0
-197 98 0
-197 29 0
-197 90 0
197 41 -46 82 32 -23 -56 43 -98 -29 -90 0
-198 -57 0
-198 -26 0
-198 62 0
-198 -36 0
-198 -85 0
-198 75 0
-198 -83 0
-198 -1 0
-198 54 0
-198 -88 0
198 57 26 -62 36 85 -75 83 1 -54 88 0
-199 -53 0
-199 -19 0
-199 -74 0
-199 85 0
-199 41 0
-199 -96 0
-199 99 0
-199 81 0
-199 -52 0
-199 8 0
199 53 19 74 -85 -41 96 -99 -81 52 -8 0
-200 79 0
-200 -8 0
-200 -21 0
-200 43 0
-200 -14 0
-200 -97 0
-200 -44 0
-200 54 0
-200 68 0
-200 -45 0
200 -79 8 21 -43 14 97 44 -54 -68 45 0
191 192 193 194 195 196 197 198 199 200 0
